assets/logs/6_14x14_clingo/6_14x14_clingo.solution.log

---------------------------------------------------------
|164|179|  0|  0|160| 19| 88| 70|140| 74|144|  0|  0| 78|
---------------------------------------------------------
| 31|  0|162| 21| 90| 68| 98| 17|146| 84|138| 76| 91|101|
---------------------------------------------------------
|177|166| 29|158| 65| 94|148| 86| 72|142| 93|103| 80|126|
---------------------------------------------------------
| 27| 33| 23| 92| 66|100| 63| 96| 15|136| 82|128| 99| 89|
---------------------------------------------------------
|168|175| 37| 67|156| 59| 64|150|109|118|105| 95|124|130|
---------------------------------------------------------
| 35| 25|170| 57|102|152|111| 61| 62| 13|134|120| 87| 97|
---------------------------------------------------------
|173| 39| 69|154|113|110| 60|  7|116|107|  1| 83|132|122|
---------------------------------------------------------
|178|172| 55|108| 30|104|115|112| 26|  5| 11|  0| 18| 85|
---------------------------------------------------------
| 41|171|176| 71| 53|  0| 28| 58|  9|114|137|  3| 81|  0|
---------------------------------------------------------
|174|180|  0| 32|106| 73|123|117|139| 24| 79| 16|135| 20|
---------------------------------------------------------
|  0| 43|169| 51|  0|  0| 56| 75|125|119|141| 22|157| 14|
---------------------------------------------------------
|  0| 49| 34| 48| 54| 44|  6|121|143| 77|  0|129|151|133|
---------------------------------------------------------
| 36| 50| 45|167| 40|  2|145|163|  8|127|149|159| 12|155|
---------------------------------------------------------
| 47|  0| 38| 52| 46|165| 42|  4|147|161| 10|153|131|  0|
---------------------------------------------------------

| n = 14 | k = 5 | coverage = 184, 93.87755102040816%
 Time 300.002
 Name 6_14x14_clingo

