assets/logs/6_14x14_clingo/6_14x14_clingo.log
clingo version 5.4.0
Reading from ...ts/logs/6_14x14_clingo/knights_tour.lp ...
Solving...
Answer: 1
occ(1,11,6) occ(1,12,1) occ(1,12,11) occ(1,9,6) occ(1,11,1) occ(2,7,11) occ(3,13,6) coverage(6)
Optimization: -6
Answer: 2
occ(1,11,6) occ(1,12,1) occ(1,12,11) occ(1,9,6) occ(1,11,1) occ(2,7,11) occ(3,13,6) coverage(8) occ(6,4,14) occ(4,6,13) occ(7,13,2) occ(5,14,4)
Optimization: -8
Answer: 3
occ(1,11,6) occ(1,12,1) occ(1,12,11) occ(1,9,6) occ(1,11,1) occ(2,7,11) occ(3,13,6) coverage(10) occ(4,8,13) occ(6,9,11) occ(8,10,13) occ(9,11,3) occ(7,13,2) occ(5,14,4)
Optimization: -10
Answer: 4
occ(1,11,6) occ(1,12,1) occ(1,12,11) occ(1,9,6) occ(1,11,1) occ(2,7,11) occ(3,13,6) coverage(12) occ(4,8,13) occ(6,9,11) occ(8,10,13) occ(11,10,1) occ(9,11,3) occ(10,12,14) occ(7,13,2) occ(5,14,4)
Optimization: -12
Answer: 5
occ(1,11,6) occ(1,12,1) occ(1,12,11) occ(1,9,6) occ(1,11,1) occ(2,7,11) occ(3,13,6) coverage(154) occ(14,1,13) occ(20,1,12) occ(24,1,8) occ(28,1,6) occ(32,1,4) occ(130,1,5) occ(138,1,7) occ(141,1,3) occ(151,1,2) occ(152,1,14) occ(171,1,10) occ(177,1,11) occ(18,2,14) occ(21,2,12) occ(22,2,10) occ(34,2,2) occ(128,2,7) occ(132,2,3) occ(136,2,5) occ(139,2,1) occ(145,2,6) occ(148,2,11) occ(149,2,4) occ(173,2,8) occ(179,2,13) occ(12,3,14) occ(16,3,12) occ(25,3,11) occ(26,3,7) occ(30,3,5) occ(140,3,6) occ(143,3,4) occ(144,3,8) occ(150,3,13) occ(153,3,1) occ(169,3,9) occ(175,3,10) occ(19,4,11) occ(23,4,13) occ(27,4,9) occ(36,4,1) occ(40,4,3) occ(74,4,8) occ(126,4,6) occ(134,4,4) occ(137,4,2) occ(146,4,10) occ(147,4,5) occ(167,4,7) occ(181,4,12) occ(10,5,13) occ(15,5,12) occ(42,5,1) occ(61,5,9) occ(70,5,11) occ(76,5,10) occ(131,5,6) occ(135,5,4) occ(142,5,7) occ(155,5,2) occ(165,5,5) occ(183,5,14) occ(4,6,13) occ(13,6,14) occ(17,6,10) occ(29,6,8) occ(38,6,2) occ(63,6,7) occ(72,6,9) occ(78,6,12) occ(124,6,5) occ(125,6,6) occ(159,6,3) occ(8,7,14) occ(31,7,6) occ(44,7,2) occ(59,7,8) occ(68,7,12) occ(73,7,9) occ(101,7,13) occ(119,7,10) occ(122,7,3) occ(129,7,7) occ(133,7,5) occ(157,7,1) occ(163,7,4) occ(6,8,12) occ(11,8,13) occ(46,8,4) occ(57,8,6) occ(65,8,8) occ(69,8,10) occ(80,8,11) occ(97,8,14) occ(120,8,1) occ(123,8,7) occ(127,8,5) occ(161,8,2) occ(33,9,5) occ(55,9,4) occ(66,9,13) occ(71,9,8) occ(75,9,10) occ(99,9,12) occ(103,9,14) occ(117,9,11) occ(121,9,9) occ(9,10,12) occ(35,10,3) occ(43,10,7) occ(48,10,5) occ(67,10,9) occ(77,10,8) occ(82,10,10) occ(95,10,13) occ(104,10,1) occ(113,10,14) occ(114,10,6) occ(118,10,2) occ(7,11,10) occ(45,11,9) occ(50,11,7) occ(53,11,5) occ(64,11,14) occ(84,11,8) occ(85,11,11) occ(102,11,3) occ(105,11,13) occ(115,11,12) occ(116,11,4) occ(5,12,8) occ(37,12,4) occ(41,12,6) occ(52,12,9) occ(58,12,10) occ(79,12,7) occ(89,12,14) occ(93,12,12) occ(96,12,3) occ(106,12,2) occ(111,12,13) occ(112,12,5) occ(47,13,8) occ(51,13,4) occ(54,13,11) occ(62,13,13) occ(83,13,10) occ(86,13,9) occ(87,13,12) occ(90,13,5) occ(94,13,1) occ(100,13,2) occ(107,13,14) occ(110,13,3) occ(39,14,5) occ(49,14,6) occ(56,14,9) occ(60,14,11) occ(81,14,8) occ(88,14,7) occ(91,14,13) occ(92,14,3) occ(98,14,4) occ(108,14,1) occ(109,14,12)
Optimization: -154
Answer: 6
occ(1,11,6) occ(1,12,1) occ(1,12,11) occ(1,9,6) occ(1,11,1) occ(2,7,11) occ(3,13,6) coverage(170) occ(25,1,1) occ(33,1,3) occ(64,1,2) occ(68,1,4) occ(76,1,12) occ(82,1,13) occ(148,1,10) occ(156,1,6) occ(162,1,11) occ(23,2,3) occ(31,2,5) occ(35,2,1) occ(41,2,2) occ(56,2,7) occ(62,2,4) occ(70,2,6) occ(74,2,10) occ(78,2,14) occ(151,2,11) occ(158,2,8) occ(164,2,13) occ(21,3,1) occ(27,3,2) occ(39,3,4) occ(60,3,6) occ(66,3,3) occ(72,3,8) occ(80,3,12) occ(84,3,14) occ(146,3,11) occ(149,3,13) occ(150,3,9) occ(154,3,5) occ(160,3,10) occ(169,3,7) occ(29,4,4) occ(37,4,2) occ(43,4,1) occ(54,4,6) occ(58,4,8) occ(127,4,3) occ(136,4,13) occ(142,4,12) occ(147,4,11) occ(152,4,7) occ(153,4,10) occ(166,4,14) occ(167,4,5) occ(19,5,2) occ(52,5,8) occ(86,5,13) occ(109,5,3) occ(116,5,6) occ(125,5,1) occ(129,5,5) occ(134,5,11) occ(140,5,14) occ(143,5,12) occ(144,5,10) occ(165,5,7) occ(45,6,2) occ(50,6,6) occ(88,6,11) occ(107,6,1) occ(111,6,5) occ(114,6,4) occ(115,6,3) occ(118,6,8) occ(131,6,7) occ(138,6,12) occ(141,6,14) occ(145,6,10) occ(155,6,9) occ(168,6,13) occ(13,7,3) occ(17,7,1) occ(47,7,4) occ(112,7,6) occ(117,7,5) occ(120,7,10) occ(123,7,2) occ(132,7,12) occ(133,7,9) occ(163,7,8) occ(11,8,1) occ(24,8,9) occ(28,8,5) occ(48,8,7) occ(73,8,12) occ(90,8,10) occ(105,8,2) occ(113,8,4) occ(119,8,3) occ(135,8,11) occ(139,8,13) occ(157,8,8) occ(161,8,6) occ(4,9,12) occ(7,9,4) occ(15,9,2) occ(20,9,10) occ(26,9,7) occ(46,9,9) occ(49,9,3) occ(71,9,14) occ(92,9,8) occ(110,9,5) occ(121,9,1) occ(122,9,11) occ(130,9,13) occ(6,10,14) occ(9,10,2) occ(22,10,8) occ(30,10,4) occ(44,10,11) occ(51,10,5) occ(57,10,6) occ(75,10,13) occ(83,10,9) occ(94,10,10) occ(103,10,3) occ(104,10,1) occ(137,10,12) occ(159,10,7) occ(5,11,5) occ(18,11,9) occ(53,11,7) occ(69,11,13) occ(81,11,11) occ(95,11,2) occ(96,11,8) occ(102,11,3) occ(108,11,4) occ(124,11,12) occ(128,11,14) occ(8,12,13) occ(12,12,9) occ(32,12,3) occ(42,12,12) occ(55,12,5) occ(59,12,7) occ(77,12,14) occ(85,12,8) occ(98,12,6) occ(101,12,4) occ(106,12,2) occ(10,13,11) occ(16,13,8) occ(34,13,5) occ(38,13,9) occ(63,13,10) occ(67,13,14) occ(79,13,12) occ(89,13,7) occ(93,13,3) occ(97,13,1) occ(100,13,4) occ(126,13,13) occ(14,14,10) occ(36,14,7) occ(40,14,11) occ(61,14,8) occ(65,14,12) occ(87,14,9) occ(91,14,5) occ(99,14,3)
Optimization: -170
Answer: 7
occ(1,11,6) occ(1,12,1) occ(1,12,11) occ(1,9,6) occ(1,11,1) occ(2,7,11) occ(3,13,6) coverage(173) occ(8,1,12) occ(14,1,13) occ(52,1,10) occ(91,1,8) occ(95,1,6) occ(99,1,2) occ(117,1,5) occ(153,1,11) occ(157,1,7) occ(161,1,3) occ(168,1,4) occ(10,2,14) occ(48,2,11) occ(54,2,8) occ(89,2,10) occ(97,2,4) occ(107,2,3) occ(115,2,7) occ(149,2,12) occ(155,2,9) occ(159,2,5) occ(163,2,1) occ(166,2,6) occ(170,2,2) occ(6,3,11) occ(12,3,12) occ(16,3,14) occ(46,3,13) occ(50,3,9) occ(87,3,8) occ(93,3,7) occ(96,3,2) occ(101,3,1) occ(105,3,5) occ(119,3,6) occ(151,3,10) occ(165,3,3) occ(172,3,4) occ(18,4,12) occ(21,4,14) occ(44,4,11) occ(56,4,7) occ(62,4,8) occ(94,4,4) occ(103,4,3) occ(109,4,2) occ(113,4,6) occ(147,4,13) occ(164,4,5) occ(167,4,1) occ(4,5,10) occ(19,5,12) occ(58,5,5) occ(85,5,9) occ(92,5,6) occ(98,5,1) occ(111,5,4) occ(121,5,7) occ(127,5,8) occ(141,5,11) occ(169,5,3) occ(20,6,11) occ(23,6,13) occ(42,6,12) occ(60,6,7) occ(64,6,9) occ(90,6,8) occ(123,6,5) occ(129,6,10) occ(136,6,3) occ(145,6,14) occ(162,6,4) occ(171,6,1) occ(17,7,13) occ(40,7,14) occ(77,7,3) occ(83,7,8) occ(86,7,9) occ(100,7,2) occ(125,7,7) occ(134,7,1) occ(139,7,10) occ(143,7,12) occ(144,7,4) occ(160,7,6) occ(22,8,12) occ(25,8,14) occ(65,8,8) occ(66,8,10) occ(75,8,1) occ(81,8,6) occ(88,8,7) occ(124,8,9) occ(128,8,5) occ(131,8,11) occ(132,8,3) occ(135,8,13) occ(138,8,2) occ(158,8,4) occ(15,9,14) occ(27,9,12) occ(38,9,13) occ(63,9,10) occ(79,9,4) occ(84,9,8) occ(102,9,1) occ(126,9,7) occ(137,9,11) occ(142,9,3) occ(146,9,5) occ(24,10,11) occ(29,10,14) occ(45,10,6) occ(67,10,7) occ(68,10,9) occ(72,10,5) occ(73,10,2) occ(82,10,10) occ(122,10,8) occ(130,10,4) occ(133,10,12) occ(140,10,1) occ(156,10,3) occ(13,11,13) occ(32,11,12) occ(36,11,14) occ(61,11,11) occ(69,11,5) occ(70,11,7) occ(74,11,3) occ(80,11,8) occ(104,11,2) occ(120,11,10) occ(148,11,4) occ(26,12,12) occ(30,12,14) occ(31,12,13) occ(37,12,10) occ(43,12,7) occ(47,12,5) occ(53,12,4) occ(59,12,9) occ(71,12,3) occ(78,12,6) occ(114,12,8) occ(154,12,2) occ(7,13,10) occ(11,13,14) occ(34,13,13) occ(35,13,12) occ(39,13,8) occ(51,13,2) occ(57,13,7) occ(76,13,4) occ(106,13,1) occ(110,13,5) occ(118,13,11) occ(150,13,3) occ(5,14,8) occ(9,14,12) occ(28,14,13) occ(33,14,14) occ(41,14,6) occ(49,14,4) occ(55,14,5) occ(108,14,3) occ(112,14,7) occ(116,14,9) occ(152,14,1)
Optimization: -173
Answer: 8
occ(1,11,6) occ(1,12,1) occ(1,12,11) occ(1,9,6) occ(1,11,1) occ(2,7,11) occ(3,13,6) coverage(175) occ(8,1,12) occ(14,1,13) occ(52,1,10) occ(95,1,6) occ(99,1,2) occ(117,1,5) occ(153,1,11) occ(157,1,7) occ(161,1,3) occ(168,1,4) occ(10,2,14) occ(48,2,11) occ(54,2,8) occ(97,2,4) occ(115,2,7) occ(119,2,3) occ(133,2,10) occ(149,2,12) occ(155,2,9) occ(159,2,5) occ(163,2,1) occ(166,2,6) occ(170,2,2) occ(6,3,11) occ(12,3,12) occ(16,3,14) occ(46,3,13) occ(50,3,9) occ(93,3,7) occ(96,3,2) occ(101,3,1) occ(121,3,5) occ(131,3,8) occ(151,3,10) occ(165,3,3) occ(172,3,4) occ(18,4,12) occ(21,4,14) occ(56,4,7) occ(62,4,8) occ(91,4,9) occ(94,4,4) occ(113,4,6) occ(129,4,10) occ(135,4,11) occ(147,4,13) occ(164,4,5) occ(167,4,1) occ(174,4,2) occ(4,5,10) occ(19,5,12) occ(44,5,14) occ(58,5,5) occ(98,5,1) occ(103,5,2) occ(111,5,4) occ(123,5,6) occ(127,5,8) occ(137,5,9) occ(141,5,11) occ(169,5,3) occ(173,5,7) occ(20,6,11) occ(23,6,13) occ(42,6,12) occ(60,6,7) occ(64,6,9) occ(77,6,2) occ(78,6,10) occ(89,6,8) occ(92,6,3) occ(145,6,14) occ(162,6,4) occ(171,6,5) occ(17,7,13) occ(40,7,14) occ(76,7,8) occ(86,7,9) occ(90,7,5) occ(100,7,2) occ(105,7,1) occ(109,7,3) occ(125,7,7) occ(139,7,10) occ(143,7,12) occ(144,7,4) occ(160,7,6) occ(22,8,12) occ(25,8,14) occ(65,8,8) occ(66,8,10) occ(74,8,6) occ(75,8,1) occ(79,8,3) occ(80,8,11) occ(83,8,5) occ(87,8,9) occ(88,8,7) occ(138,8,2) occ(158,8,4) occ(15,9,14) occ(27,9,12) occ(38,9,13) occ(63,9,10) occ(84,9,8) occ(85,9,7) occ(102,9,1) occ(107,9,2) occ(122,9,9) occ(136,9,4) occ(142,9,3) occ(146,9,5) occ(24,10,11) occ(29,10,14) occ(45,10,6) occ(67,10,7) occ(68,10,9) occ(72,10,5) occ(73,10,2) occ(81,10,4) occ(82,10,10) occ(140,10,1) occ(156,10,3) occ(13,11,13) occ(32,11,12) occ(36,11,14) occ(61,11,11) occ(69,11,5) occ(70,11,7) occ(104,11,2) occ(120,11,10) occ(124,11,8) occ(134,11,3) occ(148,11,4) occ(26,12,12) occ(30,12,14) occ(31,12,13) occ(37,12,10) occ(43,12,7) occ(47,12,5) occ(53,12,4) occ(59,12,9) occ(71,12,3) occ(114,12,8) occ(126,12,6) occ(154,12,2) occ(7,13,10) occ(11,13,14) occ(34,13,13) occ(35,13,12) occ(41,13,9) occ(51,13,2) occ(57,13,7) occ(106,13,1) occ(110,13,5) occ(118,13,11) occ(128,13,8) occ(132,13,4) occ(150,13,3) occ(5,14,8) occ(9,14,12) occ(28,14,13) occ(33,14,14) occ(39,14,11) occ(49,14,4) occ(55,14,5) occ(108,14,3) occ(112,14,7) occ(116,14,9) occ(130,14,6) occ(152,14,1)
Optimization: -175
Answer: 9
occ(1,11,6) occ(1,12,1) occ(1,12,11) occ(1,9,6) occ(1,11,1) occ(2,7,11) occ(3,13,6) coverage(176) occ(8,1,12) occ(14,1,13) occ(52,1,10) occ(95,1,6) occ(99,1,2) occ(117,1,5) occ(153,1,11) occ(157,1,7) occ(161,1,3) occ(168,1,4) occ(10,2,14) occ(48,2,11) occ(54,2,8) occ(97,2,4) occ(115,2,7) occ(119,2,3) occ(133,2,10) occ(149,2,12) occ(155,2,9) occ(159,2,5) occ(163,2,1) occ(166,2,6) occ(170,2,2) occ(6,3,11) occ(12,3,12) occ(16,3,14) occ(46,3,13) occ(50,3,9) occ(93,3,7) occ(96,3,2) occ(101,3,1) occ(121,3,5) occ(131,3,8) occ(151,3,10) occ(165,3,3) occ(172,3,4) occ(175,3,6) occ(18,4,12) occ(21,4,14) occ(56,4,7) occ(62,4,8) occ(91,4,9) occ(94,4,4) occ(113,4,6) occ(129,4,10) occ(135,4,11) occ(147,4,13) occ(164,4,5) occ(167,4,1) occ(174,4,2) occ(4,5,10) occ(19,5,12) occ(44,5,14) occ(58,5,5) occ(98,5,1) occ(103,5,2) occ(111,5,4) occ(123,5,6) occ(127,5,8) occ(137,5,9) occ(141,5,11) occ(169,5,3) occ(173,5,7) occ(20,6,11) occ(23,6,13) occ(42,6,12) occ(60,6,7) occ(64,6,9) occ(77,6,2) occ(78,6,10) occ(89,6,8) occ(92,6,3) occ(145,6,14) occ(162,6,4) occ(171,6,5) occ(17,7,13) occ(40,7,14) occ(76,7,8) occ(86,7,9) occ(90,7,5) occ(100,7,2) occ(105,7,1) occ(109,7,3) occ(125,7,7) occ(139,7,10) occ(143,7,12) occ(144,7,4) occ(160,7,6) occ(22,8,12) occ(25,8,14) occ(65,8,8) occ(66,8,10) occ(74,8,6) occ(75,8,1) occ(79,8,3) occ(80,8,11) occ(83,8,5) occ(87,8,9) occ(88,8,7) occ(138,8,2) occ(158,8,4) occ(15,9,14) occ(27,9,12) occ(38,9,13) occ(63,9,10) occ(84,9,8) occ(85,9,7) occ(102,9,1) occ(107,9,2) occ(122,9,9) occ(136,9,4) occ(142,9,3) occ(146,9,5) occ(24,10,11) occ(29,10,14) occ(45,10,6) occ(67,10,7) occ(68,10,9) occ(72,10,5) occ(73,10,2) occ(81,10,4) occ(82,10,10) occ(140,10,1) occ(156,10,3) occ(13,11,13) occ(32,11,12) occ(36,11,14) occ(61,11,11) occ(69,11,5) occ(70,11,7) occ(104,11,2) occ(120,11,10) occ(124,11,8) occ(134,11,3) occ(148,11,4) occ(26,12,12) occ(30,12,14) occ(31,12,13) occ(37,12,10) occ(43,12,7) occ(47,12,5) occ(53,12,4) occ(59,12,9) occ(71,12,3) occ(114,12,8) occ(126,12,6) occ(154,12,2) occ(7,13,10) occ(11,13,14) occ(34,13,13) occ(35,13,12) occ(41,13,9) occ(51,13,2) occ(57,13,7) occ(106,13,1) occ(110,13,5) occ(118,13,11) occ(128,13,8) occ(132,13,4) occ(150,13,3) occ(5,14,8) occ(9,14,12) occ(28,14,13) occ(33,14,14) occ(39,14,11) occ(49,14,4) occ(55,14,5) occ(108,14,3) occ(112,14,7) occ(116,14,9) occ(130,14,6) occ(152,14,1)
Optimization: -176
Answer: 10
occ(1,11,6) occ(1,12,1) occ(1,12,11) occ(1,9,6) occ(1,11,1) occ(2,7,11) occ(3,13,6) coverage(177) occ(8,1,12) occ(14,1,13) occ(52,1,10) occ(95,1,6) occ(99,1,2) occ(117,1,5) occ(153,1,11) occ(157,1,7) occ(161,1,3) occ(168,1,4) occ(10,2,14) occ(48,2,11) occ(54,2,8) occ(97,2,4) occ(115,2,7) occ(119,2,3) occ(133,2,10) occ(149,2,12) occ(155,2,9) occ(159,2,5) occ(163,2,1) occ(166,2,6) occ(170,2,2) occ(6,3,11) occ(12,3,12) occ(16,3,14) occ(46,3,13) occ(50,3,9) occ(93,3,7) occ(96,3,2) occ(101,3,1) occ(121,3,5) occ(131,3,8) occ(151,3,10) occ(165,3,3) occ(172,3,4) occ(175,3,6) occ(18,4,12) occ(21,4,14) occ(56,4,7) occ(62,4,8) occ(91,4,9) occ(94,4,4) occ(113,4,6) occ(129,4,10) occ(135,4,11) occ(147,4,13) occ(164,4,5) occ(167,4,1) occ(174,4,2) occ(4,5,10) occ(19,5,12) occ(44,5,14) occ(58,5,5) occ(98,5,1) occ(103,5,2) occ(111,5,4) occ(123,5,6) occ(127,5,8) occ(137,5,9) occ(141,5,11) occ(169,5,3) occ(173,5,7) occ(20,6,11) occ(23,6,13) occ(42,6,12) occ(60,6,7) occ(64,6,9) occ(77,6,2) occ(78,6,10) occ(89,6,8) occ(92,6,3) occ(145,6,14) occ(162,6,4) occ(171,6,5) occ(176,6,1) occ(17,7,13) occ(40,7,14) occ(76,7,8) occ(86,7,9) occ(90,7,5) occ(100,7,2) occ(105,7,1) occ(109,7,3) occ(125,7,7) occ(139,7,10) occ(143,7,12) occ(144,7,4) occ(160,7,6) occ(22,8,12) occ(25,8,14) occ(65,8,8) occ(66,8,10) occ(74,8,6) occ(75,8,1) occ(79,8,3) occ(80,8,11) occ(83,8,5) occ(87,8,9) occ(88,8,7) occ(138,8,2) occ(158,8,4) occ(15,9,14) occ(27,9,12) occ(38,9,13) occ(63,9,10) occ(84,9,8) occ(85,9,7) occ(102,9,1) occ(107,9,2) occ(122,9,9) occ(136,9,4) occ(142,9,3) occ(146,9,5) occ(24,10,11) occ(29,10,14) occ(45,10,6) occ(67,10,7) occ(68,10,9) occ(72,10,5) occ(73,10,2) occ(81,10,4) occ(82,10,10) occ(140,10,1) occ(156,10,3) occ(13,11,13) occ(32,11,12) occ(36,11,14) occ(61,11,11) occ(69,11,5) occ(70,11,7) occ(104,11,2) occ(120,11,10) occ(124,11,8) occ(134,11,3) occ(148,11,4) occ(26,12,12) occ(30,12,14) occ(31,12,13) occ(37,12,10) occ(43,12,7) occ(47,12,5) occ(53,12,4) occ(59,12,9) occ(71,12,3) occ(114,12,8) occ(126,12,6) occ(154,12,2) occ(7,13,10) occ(11,13,14) occ(34,13,13) occ(35,13,12) occ(41,13,9) occ(51,13,2) occ(57,13,7) occ(106,13,1) occ(110,13,5) occ(118,13,11) occ(128,13,8) occ(132,13,4) occ(150,13,3) occ(5,14,8) occ(9,14,12) occ(28,14,13) occ(33,14,14) occ(39,14,11) occ(49,14,4) occ(55,14,5) occ(108,14,3) occ(112,14,7) occ(116,14,9) occ(130,14,6) occ(152,14,1)
Optimization: -177
Answer: 11
occ(1,11,6) occ(1,12,1) occ(1,12,11) occ(1,9,6) occ(1,11,1) occ(2,7,11) occ(3,13,6) coverage(178) occ(23,1,12) occ(27,1,10) occ(31,1,6) occ(43,1,8) occ(47,1,4) occ(50,1,11) occ(89,1,5) occ(109,1,3) occ(121,1,9) occ(125,1,13) occ(29,2,8) occ(41,2,10) occ(45,2,6) occ(48,2,13) occ(49,2,2) occ(52,2,9) occ(82,2,12) occ(87,2,3) occ(93,2,4) occ(103,2,1) occ(107,2,5) occ(119,2,7) occ(123,2,11) occ(129,2,14) occ(21,3,13) occ(25,3,11) occ(33,3,7) occ(39,3,8) occ(80,3,10) occ(84,3,14) occ(85,3,1) occ(91,3,6) occ(105,3,3) occ(111,3,2) occ(127,3,12) occ(136,3,4) occ(162,3,5) occ(37,4,10) occ(46,4,14) occ(51,4,1) occ(54,4,8) occ(88,4,11) occ(92,4,9) occ(95,4,3) occ(101,4,2) occ(113,4,4) occ(117,4,6) occ(122,4,12) occ(131,4,13) occ(132,4,7) occ(6,5,7) occ(19,5,14) occ(35,5,8) occ(44,5,12) occ(56,5,10) occ(78,5,9) occ(83,5,2) occ(86,5,13) occ(94,5,11) occ(97,5,1) occ(134,5,5) occ(138,5,3) occ(160,5,4) occ(164,5,6) occ(4,6,9) occ(42,6,14) occ(53,6,2) occ(73,6,6) occ(76,6,7) occ(81,6,4) occ(90,6,10) occ(99,6,3) occ(115,6,5) occ(120,6,11) occ(124,6,13) occ(130,6,8) occ(133,6,12) occ(140,6,1) occ(8,7,8) occ(17,7,13) occ(58,7,9) occ(64,7,6) occ(68,7,2) occ(71,7,4) occ(74,7,5) occ(96,7,12) occ(128,7,10) occ(135,7,14) occ(158,7,3) occ(166,7,7) occ(15,8,11) occ(40,8,13) occ(55,8,1) occ(62,8,8) occ(66,8,4) occ(72,8,3) occ(75,8,7) occ(79,8,5) occ(98,8,14) occ(118,8,10) occ(126,8,12) occ(142,8,2) occ(168,8,9) occ(173,8,6) occ(10,9,9) occ(59,9,4) occ(60,9,10) occ(69,9,5) occ(70,9,1) occ(137,9,13) occ(147,9,14) occ(156,9,2) occ(169,9,3) occ(170,9,7) occ(175,9,8) occ(12,10,7) occ(13,10,10) occ(38,10,14) occ(57,10,2) occ(67,10,3) occ(77,10,6) occ(100,10,13) occ(116,10,9) occ(144,10,1) occ(145,10,12) occ(154,10,4) occ(171,10,5) occ(176,10,11) occ(14,11,5) occ(61,11,3) occ(114,11,7) occ(139,11,12) occ(143,11,14) occ(149,11,13) occ(152,11,2) occ(159,11,10) occ(167,11,4) occ(172,11,8) occ(177,11,9) occ(5,12,8) occ(11,12,9) occ(20,12,3) occ(28,12,7) occ(36,12,13) occ(65,12,4) occ(102,12,14) occ(112,12,5) occ(146,12,2) occ(153,12,12) occ(165,12,6) occ(174,12,10) occ(9,13,7) occ(16,13,4) occ(22,13,1) occ(26,13,5) occ(32,13,10) occ(63,13,2) occ(104,13,12) occ(108,13,8) occ(141,13,13) occ(150,13,3) occ(151,13,14) occ(157,13,11) occ(161,13,9) occ(7,14,9) occ(18,14,2) occ(24,14,3) occ(30,14,8) occ(34,14,12) occ(106,14,10) occ(110,14,6) occ(148,14,1) occ(155,14,13) occ(163,14,7)
Optimization: -178
Answer: 12
occ(1,11,6) occ(1,12,1) occ(1,12,11) occ(1,9,6) occ(1,11,1) occ(2,7,11) occ(3,13,6) coverage(179) occ(23,1,12) occ(43,1,8) occ(47,1,4) occ(50,1,11) occ(54,1,13) occ(60,1,10) occ(64,1,6) occ(101,1,7) occ(109,1,3) occ(121,1,5) occ(25,2,14) occ(41,2,10) occ(45,2,6) occ(48,2,13) occ(49,2,2) occ(56,2,11) occ(62,2,8) occ(82,2,12) occ(89,2,4) occ(99,2,9) occ(103,2,5) occ(107,2,1) occ(119,2,7) occ(123,2,3) occ(21,3,13) occ(39,3,8) occ(52,3,12) occ(58,3,9) occ(66,3,7) occ(80,3,10) occ(84,3,14) occ(85,3,1) occ(91,3,6) occ(97,3,11) occ(105,3,3) occ(111,3,2) occ(129,3,5) occ(136,3,4) occ(27,4,13) occ(31,4,9) occ(37,4,10) occ(46,4,14) occ(51,4,1) occ(68,4,5) occ(87,4,3) occ(88,4,11) occ(93,4,8) occ(113,4,4) occ(117,4,6) occ(122,4,12) occ(125,4,2) occ(132,4,7) occ(6,5,7) occ(19,5,14) occ(29,5,11) occ(35,5,8) occ(44,5,12) occ(78,5,9) occ(83,5,2) occ(86,5,13) occ(95,5,10) occ(127,5,4) occ(131,5,6) occ(134,5,5) occ(138,5,3) occ(4,6,9) occ(33,6,10) occ(42,6,14) occ(53,6,2) occ(70,6,4) occ(73,6,6) occ(76,6,7) occ(79,6,3) occ(90,6,12) occ(115,6,5) occ(120,6,11) occ(124,6,13) occ(130,6,8) occ(140,6,1) occ(8,7,8) occ(17,7,13) occ(63,7,2) occ(71,7,4) occ(72,7,6) occ(77,7,5) occ(81,7,1) occ(92,7,14) occ(96,7,12) occ(128,7,10) occ(133,7,7) occ(158,7,3) occ(15,8,11) occ(40,8,13) occ(55,8,1) occ(59,8,3) occ(65,8,4) occ(74,8,8) occ(75,8,7) occ(98,8,14) occ(118,8,10) occ(126,8,12) occ(135,8,9) occ(142,8,2) occ(162,8,6) occ(168,8,5) occ(10,9,9) occ(61,9,1) occ(69,9,5) occ(94,9,13) occ(137,9,11) occ(147,9,14) occ(156,9,2) occ(160,9,4) occ(164,9,8) occ(169,9,3) occ(170,9,7) occ(12,10,7) occ(13,10,10) occ(38,10,14) occ(57,10,2) occ(67,10,3) occ(100,10,13) occ(116,10,9) occ(144,10,1) occ(145,10,12) occ(154,10,4) occ(166,10,6) occ(171,10,5) occ(176,10,11) occ(14,11,5) occ(114,11,7) occ(139,11,12) occ(143,11,14) occ(149,11,13) occ(152,11,2) occ(159,11,10) occ(167,11,4) occ(172,11,8) occ(173,11,3) occ(178,11,9) occ(5,12,8) occ(11,12,9) occ(20,12,3) occ(28,12,7) occ(36,12,13) occ(102,12,14) occ(112,12,5) occ(146,12,2) occ(153,12,12) occ(165,12,6) occ(174,12,10) occ(177,12,4) occ(9,13,7) occ(16,13,4) occ(22,13,1) occ(26,13,5) occ(32,13,10) occ(104,13,12) occ(108,13,8) occ(141,13,13) occ(150,13,3) occ(151,13,14) occ(157,13,11) occ(161,13,9) occ(175,13,2) occ(7,14,9) occ(18,14,2) occ(24,14,3) occ(30,14,8) occ(34,14,12) occ(106,14,10) occ(110,14,6) occ(148,14,1) occ(155,14,13) occ(163,14,7)
Optimization: -179
Answer: 13
occ(1,11,6) occ(1,12,1) occ(1,12,11) occ(1,9,6) occ(1,11,1) occ(2,7,11) occ(3,13,6) coverage(180) occ(23,1,12) occ(43,1,8) occ(47,1,4) occ(50,1,11) occ(54,1,13) occ(60,1,10) occ(64,1,6) occ(101,1,7) occ(109,1,3) occ(121,1,5) occ(25,2,14) occ(41,2,10) occ(45,2,6) occ(48,2,13) occ(49,2,2) occ(56,2,11) occ(62,2,8) occ(82,2,12) occ(89,2,4) occ(99,2,9) occ(103,2,5) occ(107,2,1) occ(119,2,7) occ(123,2,3) occ(21,3,13) occ(39,3,8) occ(52,3,12) occ(58,3,9) occ(66,3,7) occ(80,3,10) occ(84,3,14) occ(85,3,1) occ(91,3,6) occ(97,3,11) occ(105,3,3) occ(111,3,2) occ(129,3,5) occ(136,3,4) occ(27,4,13) occ(31,4,9) occ(37,4,10) occ(46,4,14) occ(51,4,1) occ(68,4,5) occ(87,4,3) occ(88,4,11) occ(93,4,8) occ(113,4,4) occ(117,4,6) occ(122,4,12) occ(125,4,2) occ(132,4,7) occ(6,5,7) occ(19,5,14) occ(29,5,11) occ(35,5,8) occ(44,5,12) occ(78,5,9) occ(83,5,2) occ(86,5,13) occ(95,5,10) occ(127,5,4) occ(131,5,6) occ(134,5,5) occ(138,5,3) occ(4,6,9) occ(33,6,10) occ(42,6,14) occ(53,6,2) occ(70,6,4) occ(73,6,6) occ(76,6,7) occ(79,6,3) occ(90,6,12) occ(115,6,5) occ(120,6,11) occ(124,6,13) occ(130,6,8) occ(140,6,1) occ(8,7,8) occ(17,7,13) occ(63,7,2) occ(71,7,4) occ(72,7,6) occ(77,7,5) occ(81,7,1) occ(92,7,14) occ(96,7,12) occ(128,7,10) occ(133,7,7) occ(158,7,3) occ(15,8,11) occ(40,8,13) occ(55,8,1) occ(59,8,3) occ(65,8,4) occ(74,8,8) occ(75,8,7) occ(98,8,14) occ(118,8,10) occ(126,8,12) occ(135,8,9) occ(142,8,2) occ(162,8,6) occ(168,8,5) occ(10,9,9) occ(61,9,1) occ(69,9,5) occ(94,9,13) occ(137,9,11) occ(147,9,14) occ(156,9,2) occ(160,9,4) occ(164,9,8) occ(169,9,3) occ(170,9,7) occ(12,10,7) occ(13,10,10) occ(38,10,14) occ(57,10,2) occ(67,10,3) occ(100,10,13) occ(116,10,9) occ(144,10,1) occ(145,10,12) occ(154,10,4) occ(166,10,6) occ(171,10,5) occ(176,10,11) occ(14,11,5) occ(114,11,7) occ(139,11,12) occ(143,11,14) occ(149,11,13) occ(152,11,2) occ(159,11,10) occ(167,11,4) occ(172,11,8) occ(173,11,3) occ(178,11,9) occ(5,12,8) occ(11,12,9) occ(20,12,3) occ(28,12,7) occ(36,12,13) occ(102,12,14) occ(112,12,5) occ(146,12,2) occ(153,12,12) occ(165,12,6) occ(174,12,10) occ(177,12,4) occ(9,13,7) occ(16,13,4) occ(22,13,1) occ(26,13,5) occ(32,13,10) occ(104,13,12) occ(108,13,8) occ(141,13,13) occ(150,13,3) occ(151,13,14) occ(157,13,11) occ(161,13,9) occ(175,13,2) occ(7,14,9) occ(18,14,2) occ(24,14,3) occ(30,14,8) occ(34,14,12) occ(106,14,10) occ(110,14,6) occ(148,14,1) occ(155,14,13) occ(163,14,7) occ(179,14,5)
Optimization: -180
Answer: 14
occ(1,11,6) occ(1,12,1) occ(1,12,11) occ(1,9,6) occ(1,11,1) occ(2,7,11) occ(3,13,6) coverage(181) occ(10,1,13) occ(21,1,11) occ(29,1,7) occ(81,1,1) occ(86,1,9) occ(90,1,5) occ(100,1,2) occ(108,1,4) occ(116,1,10) occ(132,1,8) occ(135,1,12) occ(177,1,3) occ(180,1,6) occ(12,2,11) occ(27,2,9) occ(31,2,5) occ(83,2,3) occ(88,2,7) occ(102,2,4) occ(106,2,2) occ(110,2,6) occ(114,2,8) occ(118,2,12) occ(134,2,10) occ(179,2,1) occ(8,3,14) occ(14,3,9) occ(19,3,12) occ(23,3,10) occ(33,3,3) occ(79,3,2) occ(84,3,8) occ(92,3,6) occ(98,3,1) occ(130,3,7) occ(133,3,11) occ(137,3,13) occ(175,3,4) occ(178,3,5) occ(6,4,12) occ(25,4,8) occ(35,4,5) occ(46,4,14) occ(82,4,6) occ(85,4,2) occ(94,4,4) occ(104,4,3) occ(112,4,7) occ(120,4,13) occ(131,4,9) occ(136,4,11) occ(168,4,1) occ(4,5,10) occ(13,5,9) occ(16,5,8) occ(17,5,13) occ(48,5,12) occ(77,5,1) occ(96,5,2) occ(128,5,6) occ(129,5,7) occ(139,5,14) occ(166,5,3) occ(173,5,5) occ(176,5,4) occ(11,6,7) occ(15,6,11) occ(18,6,6) occ(37,6,4) occ(44,6,13) occ(50,6,14) occ(75,6,3) occ(80,6,5) occ(87,6,1) occ(119,6,9) occ(122,6,12) occ(126,6,8) occ(138,6,10) occ(170,6,2) occ(9,7,5) occ(22,7,9) occ(52,7,12) occ(73,7,1) occ(76,7,6) occ(124,7,10) occ(127,7,8) occ(141,7,13) occ(164,7,2) occ(171,7,4) occ(174,7,3) occ(20,8,7) occ(39,8,5) occ(42,8,14) occ(72,8,3) occ(78,8,4) occ(89,8,2) occ(113,8,12) occ(117,8,8) occ(121,8,10) occ(140,8,9) occ(143,8,11) occ(147,8,13) occ(169,8,6) occ(172,8,1) occ(7,9,4) occ(24,9,8) occ(38,9,11) occ(41,9,7) occ(54,9,13) occ(71,9,2) occ(74,9,5) occ(107,9,12) occ(111,9,14) occ(115,9,10) occ(125,9,9) occ(162,9,1) occ(28,10,5) occ(40,10,13) occ(43,10,9) occ(67,10,1) occ(70,10,2) occ(91,10,3) occ(101,10,6) occ(105,10,10) occ(123,10,11) occ(142,10,8) occ(145,10,12) occ(149,10,14) occ(158,10,4) occ(167,10,7) occ(5,11,5) occ(26,11,7) occ(36,11,10) occ(45,11,11) occ(56,11,14) occ(68,11,4) occ(69,11,3) occ(103,11,8) occ(109,11,13) occ(151,11,12) occ(160,11,2) occ(165,11,9) occ(30,12,6) occ(34,12,8) occ(47,12,13) occ(53,12,10) occ(64,12,7) occ(65,12,2) occ(93,12,4) occ(99,12,5) occ(144,12,9) occ(153,12,14) occ(156,12,3) occ(157,12,12) occ(51,13,12) occ(57,13,7) occ(58,13,13) occ(61,13,3) occ(62,13,9) occ(66,13,5) occ(95,13,2) occ(148,13,8) occ(152,13,4) occ(159,13,14) occ(163,13,10) occ(32,14,7) occ(49,14,14) occ(55,14,9) occ(59,14,5) occ(60,14,11) occ(63,14,1) occ(97,14,4) occ(146,14,10) occ(150,14,6) occ(154,14,2) occ(155,14,13) occ(161,14,12)
Optimization: -181
Answer: 15
occ(1,11,6) occ(1,12,1) occ(1,12,11) occ(1,9,6) occ(1,11,1) occ(2,7,11) occ(3,13,6) coverage(182) occ(20,1,6) occ(71,1,8) occ(75,1,10) occ(79,1,14) occ(89,1,7) occ(141,1,9) occ(145,1,11) occ(161,1,5) occ(165,1,1) occ(180,1,2) occ(18,2,8) occ(22,2,4) occ(32,2,1) occ(69,2,6) occ(77,2,12) occ(85,2,10) occ(91,2,5) occ(92,2,13) occ(99,2,7) occ(102,2,14) occ(139,2,11) occ(147,2,9) occ(163,2,3) occ(30,3,3) occ(66,3,5) occ(73,3,9) occ(81,3,13) occ(87,3,8) occ(94,3,11) occ(95,3,6) occ(104,3,12) occ(127,3,14) occ(143,3,10) occ(149,3,7) occ(159,3,4) occ(167,3,2) occ(178,3,1) occ(16,4,9) occ(24,4,3) occ(28,4,1) occ(34,4,2) occ(64,4,7) occ(67,4,5) occ(83,4,11) occ(90,4,14) occ(93,4,4) occ(97,4,8) occ(100,4,13) occ(101,4,6) occ(129,4,12) occ(137,4,10) occ(38,5,3) occ(60,5,6) occ(65,5,7) occ(68,5,4) occ(96,5,12) occ(106,5,11) occ(110,5,9) occ(119,5,10) occ(125,5,13) occ(131,5,14) occ(151,5,8) occ(157,5,5) occ(169,5,1) occ(176,5,2) occ(14,6,10) occ(26,6,2) occ(36,6,1) occ(58,6,4) occ(62,6,8) occ(63,6,9) occ(88,6,13) occ(98,6,14) occ(103,6,5) occ(112,6,7) occ(121,6,12) occ(135,6,11) occ(153,6,6) occ(171,6,3) occ(8,7,8) occ(40,7,2) occ(61,7,7) occ(70,7,3) occ(84,7,12) occ(108,7,10) occ(111,7,6) occ(114,7,5) occ(117,7,9) occ(123,7,14) occ(133,7,13) occ(155,7,4) occ(174,7,1) occ(6,8,10) occ(12,8,11) occ(19,8,13) occ(27,8,9) occ(31,8,5) occ(56,8,3) occ(86,8,14) occ(105,8,6) occ(109,8,4) occ(113,8,8) occ(116,8,7) occ(173,8,2) occ(179,8,1) occ(4,9,12) occ(10,9,9) occ(29,9,7) occ(42,9,1) occ(54,9,5) occ(59,9,8) occ(72,9,4) occ(82,9,13) occ(115,9,10) occ(138,9,11) occ(172,9,2) occ(177,9,3) occ(17,10,12) occ(21,10,14) occ(25,10,10) occ(33,10,4) occ(74,10,6) occ(80,10,11) occ(107,10,5) occ(118,10,8) occ(124,10,7) occ(136,10,13) occ(140,10,9) occ(175,10,1) occ(181,10,2) occ(15,11,14) occ(23,11,12) occ(44,11,2) occ(52,11,4) occ(57,11,7) occ(76,11,8) occ(120,11,10) occ(126,11,9) occ(142,11,11) occ(158,11,13) occ(170,11,3) occ(7,12,7) occ(35,12,3) occ(45,12,6) occ(49,12,4) occ(50,12,2) occ(55,12,5) occ(78,12,10) occ(122,12,8) occ(130,12,12) occ(134,12,14) occ(144,12,9) occ(152,12,13) occ(9,13,9) occ(13,13,13) occ(37,13,1) occ(41,13,5) occ(46,13,3) occ(51,13,2) occ(128,13,10) occ(146,13,7) occ(150,13,11) occ(156,13,14) occ(160,13,12) occ(164,13,8) occ(168,13,4) occ(5,14,8) occ(11,14,11) occ(39,14,3) occ(43,14,7) occ(47,14,5) occ(48,14,1) occ(53,14,4) occ(132,14,13) occ(148,14,9) occ(154,14,12) occ(162,14,10) occ(166,14,6)
Optimization: -182
*** Info : (clingo): INTERRUPTED by signal!
SATISFIABLE

TIME LIMIT   : 1
Models       : 15+
  Optimum    : unknown
Optimization : -182
Calls        : 1
Time         : 300.000s (Solving: 285.37s 1st Model: 0.01s Unsat: 0.00s)
CPU Time     : 300.002s
